\* column_knapsack_problem *\
Minimize
knapsack: 2 col_1 + col_2 + col_3 + 3 col_4 + 2 col_6 + 2 col_9
Subject To
sensitivity: 2 col_1 + 3 col_2 + 3 col_3 + col_4 + 2 col_6 + 2 col_9 >= 1.3
Bounds
 col_1 <= 1
 col_2 <= 1
 col_3 <= 1
 col_4 <= 1
 col_6 <= 1
 col_9 <= 1
End
